c Circuit-CNF generated by TG-PRO v1.0 (c) Huan Chen and Joao Marques-Silva
p cnf 257 637
1 2 0
-1 -2 0
3 4 0
-3 -4 0
5 6 0
-5 -6 0
7 8 0
-7 -8 0
9 10 0
-9 -10 0
11 12 0
-11 -12 0
-13 -14 0
-13 -15 0
13 14 15 0
-16 -17 0
-16 -15 0
16 17 15 0
-18 -19 0
-18 -15 0
18 19 15 0
-20 -21 0
-20 -15 0
20 21 15 0
-22 -23 0
-22 -15 0
22 23 15 0
-24 -25 0
-24 -15 0
24 25 15 0
-26 -27 0
-26 -15 0
26 27 15 0
-28 -29 0
-28 -15 0
28 29 15 0
-30 -31 0
-30 -15 0
30 31 15 0
-32 -33 0
-32 -15 0
32 33 15 0
-34 -35 0
-34 -15 0
34 35 15 0
-36 -37 0
-36 -15 0
36 37 15 0
-38 39 0
-38 40 0
38 -39 -40 0
41 42 0
-41 -42 0
-43 -44 0
-43 -45 0
43 44 45 0
-46 -47 0
-46 -48 0
46 47 48 0
49 50 0
49 51 0
-49 -50 -51 0
-52 -53 0
-52 -54 0
52 53 54 0
-55 -56 0
-55 -57 0
55 56 57 0
-58 -59 0
-58 -60 0
58 59 60 0
-61 62 0
-61 63 0
61 -62 -63 0
64 65 0
-64 -65 0
66 67 0
-66 -67 0
68 69 0
-68 -69 0
70 71 0
-70 -71 0
72 71 0
-72 -71 0
73 74 0
-73 -74 0
75 76 0
-75 -76 0
77 76 0
-77 -76 0
78 79 0
-78 -79 0
80 81 0
-80 -81 0
82 81 0
-82 -81 0
83 84 0
-83 -84 0
85 86 0
-85 -86 0
87 86 0
-87 -86 0
10 88 0
-10 -88 0
89 90 0
-89 -90 0
91 92 0
-91 -92 0
93 92 0
-93 -92 0
94 95 0
-94 -95 0
96 97 0
-96 -97 0
98 99 0
-98 -99 0
100 101 0
-100 -101 0
6 102 0
-6 -102 0
103 104 0
-103 -104 0
12 105 0
-12 -105 0
106 107 0
-106 -107 0
59 107 0
-59 -107 0
2 108 0
-2 -108 0
15 64 0
-15 -64 0
109 66 0
-109 -66 0
110 68 0
-110 -68 0
111 70 0
-111 -70 0
112 72 0
-112 -72 0
40 15 0
-40 -15 0
51 15 0
-51 -15 0
63 15 0
-63 -15 0
113 109 0
-113 -109 0
114 110 0
-114 -110 0
115 116 0
115 112 0
-115 -116 -112 0
117 115 0
-117 -115 0
-118 -95 0
-118 -119 0
118 95 119 0
120 118 0
-120 -118 0
-121 -122 0
-121 -123 0
121 122 123 0
124 121 0
-124 -121 0
125 126 0
125 127 0
-125 -126 -127 0
128 125 0
-128 -125 0
129 130 0
129 131 0
-129 -130 -131 0
132 129 0
-132 -129 0
133 134 0
133 135 0
-133 -134 -135 0
42 133 0
-42 -133 0
136 133 0
-136 -133 0
137 138 0
137 139 0
-137 -138 -139 0
140 137 0
-140 -137 0
141 124 0
-141 -124 0
142 143 0
142 144 0
-142 -143 -144 0
145 142 0
-145 -142 0
146 147 0
146 148 0
-146 -147 -148 0
149 146 0
-149 -146 0
150 151 0
150 152 0
-150 -151 -152 0
153 150 0
-153 -150 0
154 155 0
154 156 0
-154 -155 -156 0
157 154 0
-157 -154 0
158 159 0
158 160 0
-158 -159 -160 0
161 158 0
-161 -158 0
162 163 0
162 164 0
-162 -163 -164 0
165 162 0
-165 -162 0
166 167 0
166 168 0
-166 -167 -168 0
169 166 0
-169 -166 0
170 171 0
170 172 0
-170 -171 -172 0
173 170 0
-173 -170 0
174 175 0
174 93 0
-174 -175 -93 0
-44 99 0
-44 174 0
44 -99 -174 0
-176 177 0
-176 59 0
176 -177 -59 0
-178 179 0
-178 107 0
178 -179 -107 0
-180 51 0
-180 81 0
180 -51 -81 0
-48 51 0
-48 99 0
48 -51 -99 0
181 -95 0
181 -109 0
-181 95 109 0
182 -94 0
182 -113 0
-182 94 113 0
-62 181 0
-62 182 0
62 -181 -182 0
183 -92 0
183 -110 0
-183 92 110 0
184 -91 0
184 -114 0
-184 91 114 0
-39 183 0
-39 184 0
39 -183 -184 0
185 186 0
185 187 0
-185 -186 -187 0
-53 188 0
-53 133 0
53 -188 -133 0
189 190 0
189 135 0
-189 -190 -135 0
-56 191 0
-56 133 0
56 -191 -133 0
-54 185 0
-54 136 0
54 -185 -136 0
-57 189 0
-57 136 0
57 -189 -136 0
192 -193 0
192 -81 0
-192 193 81 0
194 -195 0
194 -107 0
-194 195 107 0
196 -93 0
196 -87 0
-196 93 87 0
197 -198 0
197 -59 0
-197 198 59 0
199 -200 0
199 -82 0
-199 200 82 0
201 -202 0
201 -81 0
-201 202 81 0
203 -204 0
203 -107 0
-203 204 107 0
205 -15 0
205 -98 0
-205 15 98 0
187 -15 0
187 -82 0
-187 15 82 0
206 107 0
206 77 0
-206 -107 -77 0
207 -208 0
207 -206 0
-207 208 206 0
116 71 0
116 72 0
-116 -71 -72 0
209 74 0
209 111 0
-209 -74 -111 0
-210 -70 0
-210 -73 0
210 70 73 0
211 79 0
211 210 0
-211 -79 -210 0
-212 -213 0
-212 -78 0
212 213 78 0
214 84 0
214 212 0
-214 -84 -212 0
-215 -216 0
-215 -15 0
215 216 15 0
134 59 0
134 215 0
-134 -59 -215 0
217 199 0
217 201 0
-217 -199 -201 0
45 218 0
45 51 0
-45 -218 -51 0
60 219 0
60 51 0
-60 -219 -51 0
126 74 0
126 209 0
-126 -74 -209 0
127 111 0
127 209 0
-127 -111 -209 0
130 79 0
130 211 0
-130 -79 -211 0
131 210 0
131 211 0
-131 -210 -211 0
-220 -98 0
-220 -15 0
220 98 15 0
135 207 0
135 220 0
-135 -207 -220 0
138 84 0
138 214 0
-138 -84 -214 0
139 212 0
139 214 0
-139 -212 -214 0
190 221 0
190 217 0
-190 -221 -217 0
222 90 0
222 120 0
-222 -90 -120 0
-223 -89 0
-223 -118 0
223 89 118 0
224 97 0
224 223 0
-224 -97 -223 0
-225 -226 0
-225 -118 0
225 226 118 0
227 101 0
227 225 0
-227 -101 -225 0
-228 -229 0
-228 -118 0
228 229 118 0
230 104 0
230 228 0
-230 -104 -228 0
143 90 0
143 222 0
-143 -90 -222 0
144 120 0
144 222 0
-144 -120 -222 0
147 97 0
147 224 0
-147 -97 -224 0
148 223 0
148 224 0
-148 -223 -224 0
151 101 0
151 227 0
-151 -101 -227 0
152 225 0
152 227 0
-152 -225 -227 0
155 104 0
155 230 0
-155 -104 -230 0
156 228 0
156 230 0
-156 -228 -230 0
231 107 0
231 141 0
-231 -107 -141 0
-232 -106 0
-232 -124 0
232 106 124 0
233 76 0
233 232 0
-233 -76 -232 0
-234 -235 0
-234 -124 0
234 235 124 0
236 81 0
236 234 0
-236 -81 -234 0
-237 -238 0
-237 -124 0
237 238 124 0
239 86 0
239 237 0
-239 -86 -237 0
159 107 0
159 231 0
-159 -107 -231 0
160 141 0
160 231 0
-160 -141 -231 0
163 76 0
163 233 0
-163 -76 -233 0
164 232 0
164 233 0
-164 -232 -233 0
167 81 0
167 236 0
-167 -81 -236 0
168 234 0
168 236 0
-168 -234 -236 0
171 86 0
171 239 0
-171 -86 -239 0
172 237 0
172 239 0
-172 -237 -239 0
-240 -241 0
-240 -79 0
240 241 79 0
-123 -242 0
-123 -101 0
123 242 101 0
-243 -244 0
-243 -81 0
243 244 81 0
-119 -83 0
-119 -240 0
119 83 240 0
-245 -246 0
-245 -243 0
245 246 243 0
14 -119 0
14 -117 0
-14 119 117 0
17 -119 0
17 -128 0
-17 119 128 0
19 -119 0
19 -132 0
-19 119 132 0
21 -119 0
21 -140 0
-21 119 140 0
23 -121 0
23 -145 0
-23 121 145 0
25 -121 0
25 -149 0
-25 121 149 0
27 -121 0
27 -153 0
-27 121 153 0
29 -121 0
29 -157 0
-29 121 157 0
31 -245 0
31 -161 0
-31 245 161 0
33 -245 0
33 -165 0
-33 245 165 0
35 -245 0
35 -169 0
-35 245 169 0
37 -245 0
37 -173 0
-37 245 173 0
247 -176 0
247 -178 0
-247 176 178 0
47 -247 0
47 -180 0
-47 247 180 0
-50 197 0
-50 192 0
50 -197 -192 0
122 -103 0
122 -118 0
-122 103 118 0
-248 107 0
-248 77 0
248 -107 -77 0
-175 248 0
-175 87 0
175 -248 -87 0
-177 51 0
-177 86 0
177 -51 -86 0
-179 51 0
-179 76 0
179 -51 -76 0
-186 203 0
-186 205 0
186 -203 -205 0
-188 100 0
-188 185 0
188 -100 -185 0
-191 100 0
-191 189 0
191 -100 -189 0
193 -99 0
193 -86 0
-193 99 86 0
195 -93 0
195 -76 0
-195 93 76 0
249 -99 0
249 -81 0
-249 99 81 0
198 -249 0
198 -76 0
-198 249 76 0
250 -15 0
250 -93 0
-250 15 93 0
200 -250 0
200 -86 0
-200 250 86 0
202 -15 0
202 -87 0
-202 15 87 0
251 -15 0
251 -87 0
-251 15 87 0
204 -251 0
204 -76 0
-204 251 76 0
252 -82 0
252 -86 0
-252 82 86 0
208 -252 0
208 -92 0
-208 252 92 0
213 -70 0
213 -73 0
-213 70 73 0
253 -76 0
253 -82 0
-253 76 82 0
216 -253 0
216 -93 0
-216 253 93 0
-254 194 0
-254 196 0
254 -194 -196 0
-218 254 0
-218 81 0
218 -254 -81 0
-255 76 0
-255 82 0
255 -76 -82 0
-219 255 0
-219 98 0
219 -255 -98 0
-221 59 0
-221 77 0
221 -59 -77 0
226 -89 0
226 -96 0
-226 89 96 0
256 -89 0
256 -96 0
-256 89 96 0
229 -256 0
229 -100 0
-229 256 100 0
235 -106 0
235 -75 0
-235 106 75 0
257 -106 0
257 -75 0
-257 106 75 0
238 -257 0
238 -80 0
-238 257 80 0
241 -71 0
241 -74 0
-241 71 74 0
242 -90 0
242 -97 0
-242 90 97 0
244 -107 0
244 -76 0
-244 107 76 0
246 -85 0
246 -124 0
-246 85 124 0
